c Output_time 26.03.2020 18:13:14_+0100 1585242794429848607
c ** Program information **
c program_name                          "QBRG_debug"
c version                               "0.3.20"
c date                                  "25.3.2020"
c gid_id                                "673970833836058123f633335630c185360d632e"
c author                                "Oliver Kullmann"
c url                                   "https://github.com/OKullmann/oklibrary/blob/master/Satisfiability/Transformers/Generators/Random/QBRG.cpp"
c ** Machine information **
c machine_name                          "chyna-Lenovo-G50-70"
c bogomips                              3791.08
c ** Compilation information **
c compiler_version                      "g++ 7.5.0"
c compilation_date                      "Mar_26_2020 11:16:30"
c compilation_options                   "--std=c++17 -pedantic -fmax-errors=5 -Wall -Wextra -g -D_GLIBCXX_DEBUG"
c NDEBUG                                0
c OPTIMIZE                              0
c ** Parameters **
c command-line                          "./QBRG_debug" "e40 a40 40" "308*1,1|2-2,1|3-3,1" "" "1,t" ""
c output                                "QuBlRaGe_120_308_1585242794343484347.qdimacs"
c options                               "filtered,renamed"
c num_quantifier_blocks                 3
c  quantifier_blocks                    1:e1-40 2:a41-80 3:e81-120
c num_clause-blocks                     1
c  clause-blocks                        308 * {1-40,1,1/2} | {41-80,1,1/2} | {81-120,1,1/2}
c num_e-seeds                           30+2=32
c  e-seeds                              1 0 1 0 4 120 2 40 1 40 0 40 1 308 3 1 1 1 1 2 2 2 1 1 2 3 3 1 1 2 1 1585242794343483761
p cnf 120 308
e 1 2 3 4 5 6 7 8 9 10 11 12 13 14 15 16 17 18 19 20 21 22 23 24 25 26 27 28 29 30 31 32 33 34 35 36 37 38 39 40 0
a 41 42 43 44 45 46 47 48 49 50 51 52 53 54 55 56 57 58 59 60 61 62 63 64 65 66 67 68 69 70 71 72 73 74 75 76 77 78 79 80 0
e 81 82 83 84 85 86 87 88 89 90 91 92 93 94 95 96 97 98 99 100 101 102 103 104 105 106 107 108 109 110 111 112 113 114 115 116 117 118 119 120 0
31 -41 -81 0
32 -41 -81 0
32 -52 -81 0
-24 -73 -81 0
-32 -41 81 0
-20 -42 81 0
-30 -46 81 0
-38 49 81 0
30 -55 81 0
-29 -62 81 0
-13 -65 81 0
7 -68 81 0
18 41 -82 0
28 -62 -82 0
-24 -65 -82 0
25 67 -82 0
18 77 -82 0
1 -44 82 0
-16 -53 82 0
33 59 82 0
7 66 82 0
-7 41 -83 0
-25 -44 -83 0
-21 66 -83 0
-22 -72 -83 0
-23 -74 -83 0
-30 -42 83 0
-32 44 83 0
12 -67 83 0
23 41 -84 0
16 -49 -84 0
-2 -69 -84 0
4 46 84 0
5 -56 84 0
-17 -56 84 0
-4 62 84 0
-31 72 84 0
9 -46 -85 0
-10 75 -85 0
-6 49 85 0
-35 -77 85 0
4 44 -86 0
10 57 -86 0
21 77 -86 0
-24 79 -86 0
-25 62 86 0
26 75 86 0
-33 50 -87 0
33 69 -87 0
-21 74 -87 0
-4 -48 87 0
-18 58 87 0
17 68 87 0
-20 -74 -88 0
-33 -77 -88 0
-4 -50 88 0
15 57 88 0
-8 -60 88 0
28 -66 88 0
-31 -51 -89 0
12 -63 -89 0
-23 -55 89 0
20 70 89 0
3 -66 -90 0
-31 66 -90 0
-10 41 90 0
9 43 90 0
19 -69 90 0
-14 -71 90 0
37 -79 90 0
18 -42 -91 0
-33 45 -91 0
-4 47 -91 0
-19 51 -91 0
-34 62 -91 0
-36 70 -91 0
4 75 -91 0
20 -45 91 0
5 55 91 0
-3 73 91 0
-6 52 -92 0
31 54 -92 0
-13 60 -92 0
21 68 -92 0
35 -51 92 0
-33 -62 92 0
31 -79 92 0
-37 -43 -93 0
-39 -55 -93 0
-32 -70 -93 0
10 43 93 0
19 49 93 0
18 -50 93 0
-9 -51 93 0
24 53 93 0
-39 -60 93 0
-37 72 93 0
-22 78 93 0
-1 -80 93 0
13 -44 -94 0
-26 -46 -94 0
-14 47 -94 0
5 -63 -94 0
-32 72 -94 0
4 50 94 0
27 53 94 0
15 -57 94 0
30 -64 94 0
13 -55 -95 0
-28 -55 -95 0
29 -57 -95 0
-12 76 -95 0
-10 -46 95 0
-39 -69 95 0
38 45 -96 0
-36 43 96 0
-39 47 96 0
-13 -52 96 0
-40 53 96 0
-33 55 96 0
-14 64 96 0
1 -65 96 0
-21 66 96 0
15 69 96 0
8 -74 96 0
29 79 96 0
38 57 -97 0
-38 -60 -97 0
-23 73 -97 0
-22 74 -97 0
16 -46 97 0
32 72 97 0
-29 -77 97 0
26 -42 -98 0
-11 -44 -98 0
-17 51 -98 0
-6 55 -98 0
-32 71 -98 0
9 -77 -98 0
-22 80 -98 0
8 -61 98 0
31 68 98 0
-6 -41 -99 0
15 -65 -99 0
15 -66 -99 0
24 80 -99 0
-11 -44 99 0
-11 -61 99 0
7 63 99 0
-20 -72 99 0
-5 -44 -100 0
16 -61 -100 0
-38 -63 -100 0
-28 67 -100 0
-40 -44 100 0
39 53 100 0
-15 -57 100 0
-26 -59 100 0
19 -69 100 0
-34 79 100 0
36 -67 -101 0
2 44 101 0
-3 -56 101 0
18 59 101 0
-21 67 101 0
-15 43 -102 0
40 -53 -102 0
-35 -54 -102 0
-12 62 -102 0
36 64 -102 0
-27 77 -102 0
-33 -79 -102 0
14 41 102 0
11 44 102 0
-19 -49 102 0
-5 52 102 0
40 55 102 0
-40 58 102 0
21 66 102 0
40 70 102 0
34 74 102 0
15 46 -103 0
9 -51 -103 0
21 55 -103 0
31 -50 103 0
29 -51 103 0
4 64 103 0
21 -68 103 0
27 72 103 0
-36 74 103 0
-1 74 -104 0
4 42 104 0
-38 42 104 0
-12 72 104 0
29 -43 -105 0
22 -45 -105 0
-25 57 -105 0
-31 -66 -105 0
-2 78 -105 0
-14 -77 105 0
11 -49 -106 0
-34 53 -106 0
-33 -65 -106 0
31 73 -106 0
22 41 106 0
-39 47 106 0
6 61 106 0
38 64 106 0
37 -46 -107 0
5 56 -107 0
-21 -42 107 0
15 54 107 0
3 64 107 0
-19 -65 107 0
20 -77 107 0
-8 -48 -108 0
40 55 -108 0
25 -77 -108 0
-7 41 108 0
1 43 108 0
-39 -59 108 0
20 55 -109 0
-10 -56 -109 0
-34 -62 -109 0
-32 -67 -109 0
37 -42 -110 0
26 -49 -110 0
8 -50 -110 0
31 50 -110 0
-39 -54 -110 0
-1 -71 -110 0
26 -71 -110 0
-24 78 -110 0
9 46 110 0
4 -77 110 0
31 47 -111 0
-20 -57 -111 0
30 62 -111 0
13 69 -112 0
-20 -74 -112 0
-27 44 112 0
-7 -48 112 0
21 56 112 0
5 -70 112 0
21 78 112 0
24 -47 -113 0
13 -68 -113 0
39 -68 -113 0
-5 73 -113 0
-29 -53 113 0
33 -54 113 0
-4 70 113 0
14 -62 114 0
24 -62 114 0
-30 -72 114 0
5 41 -115 0
-35 -46 -115 0
-3 69 -115 0
26 43 115 0
17 47 115 0
-19 53 115 0
8 -61 115 0
-3 -62 115 0
2 -72 115 0
-7 76 115 0
12 -56 -116 0
26 58 -116 0
-33 42 116 0
-26 55 116 0
-15 -64 116 0
21 65 116 0
6 66 116 0
30 -76 116 0
6 43 -117 0
33 -47 -117 0
-20 -48 -117 0
-37 -56 -117 0
29 -71 -117 0
28 -42 117 0
13 46 117 0
-10 -72 117 0
26 -75 117 0
3 78 117 0
-5 -50 -118 0
-36 -63 -118 0
22 -79 -118 0
-10 49 118 0
-4 -61 118 0
-28 -64 118 0
3 -71 118 0
16 -71 118 0
27 73 118 0
1 -78 118 0
4 47 -119 0
31 -50 -119 0
36 53 -119 0
-24 70 -119 0
-34 72 -119 0
-26 -73 -119 0
-12 -77 -119 0
-29 -77 119 0
-15 42 -120 0
-39 -56 -120 0
-40 75 -120 0
-31 80 -120 0
20 -54 120 0
-10 -56 120 0
35 69 120 0
